NAME : pairopt.-195083.tour
COMMENT : Length = -195083
COMMENT : Found by LKH-3 [Keld Helsgaun] Tue Mar  4 23:54:44 2025
TYPE : TOUR
DIMENSION : 24
TOUR_SECTION
1
3
22
10
9
4
5
6
7
8
20
23
24
2
11
12
14
18
21
19
17
16
13
15
-1
EOF
